\* Problem: steiner *\

Minimize
 obj: + 4.8403582572937 x1i11 + 5.83095169067383 x1i12
 + 9.43398094177246 x1i13 + 7.02468252182007 x1i14
 + 5.83095169067383 x1i15 + 99999 x1i16 + 99999 x1i17
 + 7.24774503707886 x1i18 + 1.63299286365509 x2i11 + 0 x2i12
 + 3.60555124282837 x2i13 + 1.43103623390198 x2i14
 + 2.82842707633972 x2i15 + 5.83095169067383 x2i16
 + 5.49744367599487 x2i17 + 2.80114436149597 x2i18
 + 2.94392013549805 x3i11 + 4.24264049530029 x3i12
 + 6.08276271820068 x3i13 + 5.43249177932739 x3i14
 + 1.41421353816986 x3i15 + 6.32455539703369 x3i16
 + 6.86955070495605 x3i17 + 7.03722476959229 x3i18
 + 6.47335004806519 x4i11 + 5.83095169067383 x4i12 + 3 x4i13
 + 5.39063692092896 x4i14 + 5.83095169067383 x4i15 + 0 x4i16
 + 1.30264699459076 x4i17 + 6.85179471969604 x4i18
 + 4.84150409698486 x5i11 + 3.60555124282837 x5i12 + 0 x5i13
 + 2.67034935951233 x5i14 + 5 x5i15 + 3 x5i16 + 2.12848520278931 x5i17
 + 3.89304375648499 x5i18 + 6.08079481124878 x6i11
 + 4.4721360206604 x6i12 + 4.12310552597046 x6i13
 + 3.16983699798584 x6i14 + 7.21110248565674 x6i15
 + 7.07106781005859 x6i16 + 5.97559452056885 x6i17
 + 1.86345100402832 x6i18 + 1.63299298286438 x7i11
 + 2.82842707633972 x7i12 + 5 x7i13 + 4.04441118240356 x7i14 + 0 x7i15
 + 5.83095169067383 x7i16 + 6.12653636932373 x7i17
 + 5.624098777771 x7i18 + 5.79610729217529 x8i11 + 6 x8i12 + 5 x8i13
 + 6.31698274612427 x8i14 + 4.4721360206604 x8i15
 + 3.16227769851685 x8i16 + 4.30752468109131 x8i17
 + 8.08881950378418 x8i18 + 6.6260290145874 x9i11
 + 5.65685415267944 x9i12 + 2.2360680103302 x9i13
 + 4.88919925689697 x9i14 + 6.32455539703369 x9i15
 + 1.41421353816986 x9i16 + 0.201518625020981 x9i17
 + 6.0872859954834 x9i18 + 4.32049369812012 x10i11
 + 2.82842707633972 x10i12 + 4.12310552597046 x10i13
 + 1.93351113796234 x10i14 + 5.65685415267944 x10i15
 + 7.07106781005859 x10i16 + 6.23773431777954 x10i17
 + 0.249658763408661 x10i18 + 1.63299286365509 x11i12
 + 4.84150409698486 x11i13 + 3.05505037307739 x11i14
 + 1.63299298286438 x11i15 + 99999 x11i16 + 99999 x11i17
 + 4.33682060241699 x11i18 + 3.60555124282837 x12i13
 + 1.43103623390198 x12i14 + 2.82842707633972 x12i15
 + 5.83095169067383 x12i16 + 5.49744367599487 x12i17
 + 2.80114436149597 x12i18 + 2.67034935951233 x13i14 + 5 x13i15
 + 3 x13i16 + 2.12848520278931 x13i17 + 3.89304375648499 x13i18
 + 4.04441118240356 x14i15 + 5.39063692092896 x14i16
 + 4.76292896270752 x14i17 + 1.79655408859253 x14i18
 + 5.83095169067383 x15i16 + 99999 x15i17 + 5.624098777771 x15i18
 + 1.30264699459076 x16i17 + 99999 x16i18 + 99999 x17i18

Subject To
 p1: 0 x1i11 = 1
 p2: 0 x1i11 = 1
 p3: 0 x1i11 = 1
 p4: 0 x1i11 = 1
 p5: 0 x1i11 = 1
 p6: 0 x1i11 = 1
 p7: 0 x1i11 = 1
 p8: 0 x1i11 = 1
 p9: 0 x1i11 = 1
 p10: 0 x1i11 = 1
 q11: 0 x1i11 = 3
 q12: 0 x1i11 = 3
 q13: 0 x1i11 = 3
 q14: 0 x1i11 = 3
 q15: 0 x1i11 = 3
 q16: 0 x1i11 = 3
 q17: 0 x1i11 = 3
 q18: 0 x1i11 = 3

Bounds
 0 <= x1i11 <= 1
 0 <= x1i12 <= 1
 0 <= x1i13 <= 1
 0 <= x1i14 <= 1
 0 <= x1i15 <= 1
 x1i16 = 0
 x1i17 = 0
 0 <= x1i18 <= 1
 0 <= x2i11 <= 1
 0 <= x2i12 <= 1
 0 <= x2i13 <= 1
 0 <= x2i14 <= 1
 0 <= x2i15 <= 1
 0 <= x2i16 <= 1
 0 <= x2i17 <= 1
 0 <= x2i18 <= 1
 0 <= x3i11 <= 1
 0 <= x3i12 <= 1
 0 <= x3i13 <= 1
 0 <= x3i14 <= 1
 0 <= x3i15 <= 1
 0 <= x3i16 <= 1
 0 <= x3i17 <= 1
 0 <= x3i18 <= 1
 0 <= x4i11 <= 1
 0 <= x4i12 <= 1
 0 <= x4i13 <= 1
 0 <= x4i14 <= 1
 0 <= x4i15 <= 1
 0 <= x4i16 <= 1
 0 <= x4i17 <= 1
 0 <= x4i18 <= 1
 0 <= x5i11 <= 1
 0 <= x5i12 <= 1
 0 <= x5i13 <= 1
 0 <= x5i14 <= 1
 0 <= x5i15 <= 1
 0 <= x5i16 <= 1
 0 <= x5i17 <= 1
 0 <= x5i18 <= 1
 0 <= x6i11 <= 1
 0 <= x6i12 <= 1
 0 <= x6i13 <= 1
 0 <= x6i14 <= 1
 0 <= x6i15 <= 1
 0 <= x6i16 <= 1
 0 <= x6i17 <= 1
 0 <= x6i18 <= 1
 0 <= x7i11 <= 1
 0 <= x7i12 <= 1
 0 <= x7i13 <= 1
 0 <= x7i14 <= 1
 0 <= x7i15 <= 1
 0 <= x7i16 <= 1
 0 <= x7i17 <= 1
 0 <= x7i18 <= 1
 0 <= x8i11 <= 1
 0 <= x8i12 <= 1
 0 <= x8i13 <= 1
 0 <= x8i14 <= 1
 0 <= x8i15 <= 1
 0 <= x8i16 <= 1
 0 <= x8i17 <= 1
 0 <= x8i18 <= 1
 0 <= x9i11 <= 1
 0 <= x9i12 <= 1
 0 <= x9i13 <= 1
 0 <= x9i14 <= 1
 0 <= x9i15 <= 1
 0 <= x9i16 <= 1
 0 <= x9i17 <= 1
 0 <= x9i18 <= 1
 0 <= x10i11 <= 1
 0 <= x10i12 <= 1
 0 <= x10i13 <= 1
 0 <= x10i14 <= 1
 0 <= x10i15 <= 1
 0 <= x10i16 <= 1
 0 <= x10i17 <= 1
 0 <= x10i18 <= 1
 0 <= x11i12 <= 1
 0 <= x11i13 <= 1
 0 <= x11i14 <= 1
 0 <= x11i15 <= 1
 x11i16 = 0
 x11i17 = 0
 0 <= x11i18 <= 1
 0 <= x12i13 <= 1
 0 <= x12i14 <= 1
 0 <= x12i15 <= 1
 0 <= x12i16 <= 1
 0 <= x12i17 <= 1
 0 <= x12i18 <= 1
 0 <= x13i14 <= 1
 0 <= x13i15 <= 1
 0 <= x13i16 <= 1
 0 <= x13i17 <= 1
 0 <= x13i18 <= 1
 0 <= x14i15 <= 1
 0 <= x14i16 <= 1
 0 <= x14i17 <= 1
 0 <= x14i18 <= 1
 0 <= x15i16 <= 1
 x15i17 = 0
 0 <= x15i18 <= 1
 0 <= x16i17 <= 1
 x16i18 = 0
 x17i18 = 0

Generals
 x1i11
 x1i12
 x1i13
 x1i14
 x1i15
 x1i16
 x1i17
 x1i18
 x2i11
 x2i12
 x2i13
 x2i14
 x2i15
 x2i16
 x2i17
 x2i18
 x3i11
 x3i12
 x3i13
 x3i14
 x3i15
 x3i16
 x3i17
 x3i18
 x4i11
 x4i12
 x4i13
 x4i14
 x4i15
 x4i16
 x4i17
 x4i18
 x5i11
 x5i12
 x5i13
 x5i14
 x5i15
 x5i16
 x5i17
 x5i18
 x6i11
 x6i12
 x6i13
 x6i14
 x6i15
 x6i16
 x6i17
 x6i18
 x7i11
 x7i12
 x7i13
 x7i14
 x7i15
 x7i16
 x7i17
 x7i18
 x8i11
 x8i12
 x8i13
 x8i14
 x8i15
 x8i16
 x8i17
 x8i18
 x9i11
 x9i12
 x9i13
 x9i14
 x9i15
 x9i16
 x9i17
 x9i18
 x10i11
 x10i12
 x10i13
 x10i14
 x10i15
 x10i16
 x10i17
 x10i18
 x11i12
 x11i13
 x11i14
 x11i15
 x11i16
 x11i17
 x11i18
 x12i13
 x12i14
 x12i15
 x12i16
 x12i17
 x12i18
 x13i14
 x13i15
 x13i16
 x13i17
 x13i18
 x14i15
 x14i16
 x14i17
 x14i18
 x15i16
 x15i17
 x15i18
 x16i17
 x16i18
 x17i18

End
